(set-logic QF_S)
(declare-fun var_0xINPUT_67636 () String)
(assert (and (= (len var_0xINPUT_67636) 0) (= (len var_0xINPUT_67636) 0) (not (= var_0xINPUT_67636 "YY8CBEMy6Q"))))
(check-sat var_0xINPUT_67636)